4 
5  25 47 
6  03 23 35 48 
7  03 18 36 51 
8  06 21 36 51 
9  06 21 36 51 
10  06 21 36 51 
11  06 21 36 51 
12  06 21 36 51 
13  06 21 36 51 
14  06 21 36 51 
15  06 21 36 51 
16  06 21 36 51 
17  06 21 36 51 
18  06 21 36 51 
19  07 23 38 53 
20  08 23 38 53 
21  08 23 38 53 
22  08 22 37 52 
23  07 22 
0 
